data/CVRPLIB/Vrp-Set-XML100/instances/XML100_3214_22.vrp
NAME : XML100_3214_22
COMMENT : Generated by Queiroga, Sadykov, Uchoa, and Vidal (2021)
TYPE : CVRP
DIMENSION : 101
EDGE_WEIGHT_TYPE : EUC_2D
CAPACITY : 15
NODE_COORD_SECTION
1    0    0   
2    921  106 
3    231  448 
4    50   844 
5    0    722 
6    99   745 
7    11   782 
8    221  882 
9    904  148 
10   184  850 
11   94   832 
12   36   740 
13   96   749 
14   52   669 
15   834  182 
16   94   846 
17   81   864 
18   6    670 
19   166  802 
20   150  679 
21   854  349 
22   319  921 
23   972  148 
24   268  865 
25   244  854 
26   26   762 
27   128  728 
28   285  919 
29   249  879 
30   93   732 
31   928  116 
32   98   895 
33   173  901 
34   856  143 
35   36   845 
36   116  844 
37   109  850 
38   906  118 
39   76   973 
40   878  196 
41   890  61  
42   284  419 
43   929  39  
44   163  943 
45   197  799 
46   69   694 
47   94   790 
48   96   721 
49   113  822 
50   186  816 
51   923  380 
52   190  792 
53   179  862 
54   88   905 
55   111  766 
56   190  866 
57   1000 213 
58   259  766 
59   102  889 
60   63   800 
61   135  943 
62   871  77  
63   47   843 
64   84   711 
65   898  150 
66   964  153 
67   294  909 
68   81   887 
69   91   756 
70   99   816 
71   68   798 
72   797  211 
73   930  158 
74   880  1   
75   863  151 
76   956  141 
77   164  819 
78   291  704 
79   41   684 
80   165  932 
81   745  46  
82   962  126 
83   152  805 
84   248  778 
85   839  110 
86   912  394 
87   962  255 
88   195  724 
89   863  113 
90   131  840 
91   43   901 
92   774  161 
93   945  127 
94   312  994 
95   120  833 
96   827  127 
97   922  274 
98   109  825 
99   123  818 
100  822  139 
101  210  821 
DEMAND_SECTION
1    0   
2    1   
3    1   
4    1   
5    1   
6    1   
7    1   
8    1   
9    1   
10   1   
11   1   
12   1   
13   1   
14   1   
15   1   
16   1   
17   1   
18   1   
19   1   
20   1   
21   1   
22   1   
23   1   
24   1   
25   1   
26   1   
27   1   
28   1   
29   1   
30   1   
31   1   
32   1   
33   1   
34   1   
35   1   
36   1   
37   1   
38   1   
39   1   
40   1   
41   1   
42   1   
43   1   
44   1   
45   1   
46   1   
47   1   
48   1   
49   1   
50   1   
51   1   
52   1   
53   1   
54   1   
55   1   
56   1   
57   1   
58   1   
59   1   
60   1   
61   1   
62   1   
63   1   
64   1   
65   1   
66   1   
67   1   
68   1   
69   1   
70   1   
71   1   
72   1   
73   1   
74   1   
75   1   
76   1   
77   1   
78   1   
79   1   
80   1   
81   1   
82   1   
83   1   
84   1   
85   1   
86   1   
87   1   
88   1   
89   1   
90   1   
91   1   
92   1   
93   1   
94   1   
95   1   
96   1   
97   1   
98   1   
99   1   
100  1   
101  1   
DEPOT_SECTION
1
-1
EOF
