data/CVRPLIB/Vrp-Set-XML100/solutions/XML100_3214_22.sol
Route #1: 54 98 94 89 35 36 58 31 53 67 16 15 10 69 46
Route #2: 20 50 85 21 93 27 66 23 28 7 24 83 57 77 41
Route #3: 80 73 42 40 61 37 72 8 64 74 33 95 99 91
Route #4: 84 88 1 30 92 81 75 65 22 56 86 96 39 14 71
Route #5: 4 6 34 62 3 90 38 60 43 79 32 55 52 9 100
Route #6: 17 11 25 59 70 97 48 82 18 76 49 44 51 87 2
Route #7: 19 26 5 12 68 29 47 63 45 78 13
Cost 14749
